language ESSENCE' 1.0

letting C_FunctionND be
        [[0, 0, 0, 0, 0, 0, 0, 0, 0, 0, 0, 0, 0, 0, 0, 0, 0, 0, 0, 0, 0, 0; int(0..21)],
         [1, 0, 0, 0, 0, 0, 0, 0, 0, 0, 0, 0, 0, 0, 0, 0, 0, 0, 0, 0, 0, 0; int(0..21)],
         [1, 0, 0, 0, 0, 0, 0, 0, 0, 0, 0, 0, 0, 0, 0, 0, 0, 0, 0, 0, 0, 0; int(0..21)],
         [1, 0, 0, 0, 0, 0, 0, 0, 0, 0, 0, 0, 0, 0, 0, 0, 0, 0, 0, 0, 0, 0; int(0..21)],
         [1, 0, 0, 0, 0, 0, 0, 0, 0, 0, 0, 0, 0, 0, 0, 0, 0, 0, 0, 0, 0, 0; int(0..21)],
         [1, 0, 0, 0, 0, 0, 0, 0, 0, 0, 0, 0, 0, 0, 0, 0, 0, 0, 0, 0, 0, 0; int(0..21)],
         [1, 0, 0, 0, 0, 0, 0, 0, 0, 0, 0, 0, 0, 0, 0, 0, 0, 0, 0, 0, 0, 0; int(0..21)],
         [1, 0, 0, 0, 0, 0, 0, 0, 0, 0, 0, 0, 0, 0, 0, 0, 0, 0, 0, 0, 0, 0; int(0..21)],
         [1, 0, 0, 0, 0, 0, 0, 0, 0, 0, 0, 0, 0, 0, 0, 0, 0, 0, 0, 0, 0, 0; int(0..21)],
         [1, 0, 0, 0, 0, 0, 0, 0, 0, 0, 0, 0, 0, 0, 0, 0, 0, 0, 0, 0, 0, 0; int(0..21)],
         [1, 0, 0, 0, 0, 0, 0, 0, 0, 0, 0, 0, 0, 0, 0, 0, 0, 0, 0, 0, 0, 0; int(0..21)],
         [0, 1, 1, 0, 0, 0, 0, 0, 0, 0, 0, 0, 0, 0, 0, 0, 0, 0, 0, 0, 0, 0; int(0..21)],
         [0, 1, 0, 1, 0, 0, 0, 0, 0, 0, 0, 0, 0, 0, 0, 0, 0, 0, 0, 0, 0, 0; int(0..21)],
         [0, 1, 0, 0, 1, 0, 0, 0, 0, 0, 0, 0, 0, 0, 0, 0, 0, 0, 0, 0, 0, 0; int(0..21)],
         [0, 1, 0, 0, 0, 1, 0, 0, 0, 0, 0, 0, 0, 0, 0, 0, 0, 0, 0, 0, 0, 0; int(0..21)],
         [0, 1, 0, 0, 0, 0, 1, 0, 0, 0, 0, 0, 0, 0, 0, 0, 0, 0, 0, 0, 0, 0; int(0..21)],
         [0, 1, 0, 0, 0, 0, 0, 1, 0, 0, 0, 0, 0, 0, 0, 0, 0, 0, 0, 0, 0, 0; int(0..21)],
         [0, 1, 0, 0, 0, 0, 0, 0, 1, 0, 0, 0, 0, 0, 0, 0, 0, 0, 0, 0, 0, 0; int(0..21)],
         [0, 1, 0, 0, 0, 0, 0, 0, 0, 1, 0, 0, 0, 0, 0, 0, 0, 0, 0, 0, 0, 0; int(0..21)],
         [0, 1, 0, 0, 0, 0, 0, 0, 0, 0, 1, 0, 0, 0, 0, 0, 0, 0, 0, 0, 0, 0; int(0..21)],
         [0, 0, 1, 1, 1, 1, 1, 1, 1, 1, 1, 0, 0, 0, 0, 0, 0, 0, 0, 0, 0, 0; int(0..21)],
         [0, 0, 0, 0, 0, 0, 0, 0, 0, 0, 0, 1, 1, 1, 1, 1, 1, 1, 1, 1, 1, 0; int(0..21)];
             int(0..21)]
$ Visualisation for C_FunctionND
$ 0 0 0 0 0 0 0 0 0 0 0 0 0 0 0 0 0 0 0 0 0 0
$ 1 0 0 0 0 0 0 0 0 0 0 0 0 0 0 0 0 0 0 0 0 0
$ 1 0 0 0 0 0 0 0 0 0 0 0 0 0 0 0 0 0 0 0 0 0
$ 1 0 0 0 0 0 0 0 0 0 0 0 0 0 0 0 0 0 0 0 0 0
$ 1 0 0 0 0 0 0 0 0 0 0 0 0 0 0 0 0 0 0 0 0 0
$ 1 0 0 0 0 0 0 0 0 0 0 0 0 0 0 0 0 0 0 0 0 0
$ 1 0 0 0 0 0 0 0 0 0 0 0 0 0 0 0 0 0 0 0 0 0
$ 1 0 0 0 0 0 0 0 0 0 0 0 0 0 0 0 0 0 0 0 0 0
$ 1 0 0 0 0 0 0 0 0 0 0 0 0 0 0 0 0 0 0 0 0 0
$ 1 0 0 0 0 0 0 0 0 0 0 0 0 0 0 0 0 0 0 0 0 0
$ 1 0 0 0 0 0 0 0 0 0 0 0 0 0 0 0 0 0 0 0 0 0
$ 0 1 1 0 0 0 0 0 0 0 0 0 0 0 0 0 0 0 0 0 0 0
$ 0 1 0 1 0 0 0 0 0 0 0 0 0 0 0 0 0 0 0 0 0 0
$ 0 1 0 0 1 0 0 0 0 0 0 0 0 0 0 0 0 0 0 0 0 0
$ 0 1 0 0 0 1 0 0 0 0 0 0 0 0 0 0 0 0 0 0 0 0
$ 0 1 0 0 0 0 1 0 0 0 0 0 0 0 0 0 0 0 0 0 0 0
$ 0 1 0 0 0 0 0 1 0 0 0 0 0 0 0 0 0 0 0 0 0 0
$ 0 1 0 0 0 0 0 0 1 0 0 0 0 0 0 0 0 0 0 0 0 0
$ 0 1 0 0 0 0 0 0 0 1 0 0 0 0 0 0 0 0 0 0 0 0
$ 0 1 0 0 0 0 0 0 0 0 1 0 0 0 0 0 0 0 0 0 0 0
$ 0 0 1 1 1 1 1 1 1 1 1 0 0 0 0 0 0 0 0 0 0 0
$ 0 0 0 0 0 0 0 0 0 0 0 1 1 1 1 1 1 1 1 1 1 0

letting J_FunctionND be
        [[0, 1, 2, 3, 4, 5, 6, 7, 8, 9, 10, 11, 12, 13, 14, 15, 16, 17, 18, 19, 20, 21; int(0..21)],
         [1, 1, 11, 12, 13, 14, 15, 16, 17, 18, 19, 11, 12, 13, 14, 15, 16, 17, 18, 19, 21, 21; int(0..21)],
         [2, 11, 2, 20, 20, 20, 20, 20, 20, 20, 20, 11, 21, 21, 21, 21, 21, 21, 21, 21, 20, 21; int(0..21)],
         [3, 12, 20, 3, 20, 20, 20, 20, 20, 20, 20, 21, 12, 21, 21, 21, 21, 21, 21, 21, 20, 21; int(0..21)],
         [4, 13, 20, 20, 4, 20, 20, 20, 20, 20, 20, 21, 21, 13, 21, 21, 21, 21, 21, 21, 20, 21; int(0..21)],
         [5, 14, 20, 20, 20, 5, 20, 20, 20, 20, 20, 21, 21, 21, 14, 21, 21, 21, 21, 21, 20, 21; int(0..21)],
         [6, 15, 20, 20, 20, 20, 6, 20, 20, 20, 20, 21, 21, 21, 21, 15, 21, 21, 21, 21, 20, 21; int(0..21)],
         [7, 16, 20, 20, 20, 20, 20, 7, 20, 20, 20, 21, 21, 21, 21, 21, 16, 21, 21, 21, 20, 21; int(0..21)],
         [8, 17, 20, 20, 20, 20, 20, 20, 8, 20, 20, 21, 21, 21, 21, 21, 21, 17, 21, 21, 20, 21; int(0..21)],
         [9, 18, 20, 20, 20, 20, 20, 20, 20, 9, 20, 21, 21, 21, 21, 21, 21, 21, 18, 21, 20, 21; int(0..21)],
         [10, 19, 20, 20, 20, 20, 20, 20, 20, 20, 10, 21, 21, 21, 21, 21, 21, 21, 21, 19, 20, 21; int(0..21)],
         [11, 11, 11, 21, 21, 21, 21, 21, 21, 21, 21, 11, 21, 21, 21, 21, 21, 21, 21, 21, 21, 21; int(0..21)],
         [12, 12, 21, 12, 21, 21, 21, 21, 21, 21, 21, 21, 12, 21, 21, 21, 21, 21, 21, 21, 21, 21; int(0..21)],
         [13, 13, 21, 21, 13, 21, 21, 21, 21, 21, 21, 21, 21, 13, 21, 21, 21, 21, 21, 21, 21, 21; int(0..21)],
         [14, 14, 21, 21, 21, 14, 21, 21, 21, 21, 21, 21, 21, 21, 14, 21, 21, 21, 21, 21, 21, 21; int(0..21)],
         [15, 15, 21, 21, 21, 21, 15, 21, 21, 21, 21, 21, 21, 21, 21, 15, 21, 21, 21, 21, 21, 21; int(0..21)],
         [16, 16, 21, 21, 21, 21, 21, 16, 21, 21, 21, 21, 21, 21, 21, 21, 16, 21, 21, 21, 21, 21; int(0..21)],
         [17, 17, 21, 21, 21, 21, 21, 21, 17, 21, 21, 21, 21, 21, 21, 21, 21, 17, 21, 21, 21, 21; int(0..21)],
         [18, 18, 21, 21, 21, 21, 21, 21, 21, 18, 21, 21, 21, 21, 21, 21, 21, 21, 18, 21, 21, 21; int(0..21)],
         [19, 19, 21, 21, 21, 21, 21, 21, 21, 21, 19, 21, 21, 21, 21, 21, 21, 21, 21, 19, 21, 21; int(0..21)],
         [20, 21, 20, 20, 20, 20, 20, 20, 20, 20, 20, 21, 21, 21, 21, 21, 21, 21, 21, 21, 20, 21; int(0..21)],
         [21, 21, 21, 21, 21, 21, 21, 21, 21, 21, 21, 21, 21, 21, 21, 21, 21, 21, 21, 21, 21, 21; int(0..21)];
             int(0..21)]
$ Visualisation for J_FunctionND
$  0  1  2  3  4  5  6  7  8  9 10 11 12 13 14 15 16 17 18 19 20 21
$  1  1 11 12 13 14 15 16 17 18 19 11 12 13 14 15 16 17 18 19 21 21
$  2 11  2 20 20 20 20 20 20 20 20 11 21 21 21 21 21 21 21 21 20 21
$  3 12 20  3 20 20 20 20 20 20 20 21 12 21 21 21 21 21 21 21 20 21
$  4 13 20 20  4 20 20 20 20 20 20 21 21 13 21 21 21 21 21 21 20 21
$  5 14 20 20 20  5 20 20 20 20 20 21 21 21 14 21 21 21 21 21 20 21
$  6 15 20 20 20 20  6 20 20 20 20 21 21 21 21 15 21 21 21 21 20 21
$  7 16 20 20 20 20 20  7 20 20 20 21 21 21 21 21 16 21 21 21 20 21
$  8 17 20 20 20 20 20 20  8 20 20 21 21 21 21 21 21 17 21 21 20 21
$  9 18 20 20 20 20 20 20 20  9 20 21 21 21 21 21 21 21 18 21 20 21
$ 10 19 20 20 20 20 20 20 20 20 10 21 21 21 21 21 21 21 21 19 20 21
$ 11 11 11 21 21 21 21 21 21 21 21 11 21 21 21 21 21 21 21 21 21 21
$ 12 12 21 12 21 21 21 21 21 21 21 21 12 21 21 21 21 21 21 21 21 21
$ 13 13 21 21 13 21 21 21 21 21 21 21 21 13 21 21 21 21 21 21 21 21
$ 14 14 21 21 21 14 21 21 21 21 21 21 21 21 14 21 21 21 21 21 21 21
$ 15 15 21 21 21 21 15 21 21 21 21 21 21 21 21 15 21 21 21 21 21 21
$ 16 16 21 21 21 21 21 16 21 21 21 21 21 21 21 21 16 21 21 21 21 21
$ 17 17 21 21 21 21 21 21 17 21 21 21 21 21 21 21 21 17 21 21 21 21
$ 18 18 21 21 21 21 21 21 21 18 21 21 21 21 21 21 21 21 18 21 21 21
$ 19 19 21 21 21 21 21 21 21 21 19 21 21 21 21 21 21 21 21 19 21 21
$ 20 21 20 20 20 20 20 20 20 20 20 21 21 21 21 21 21 21 21 21 20 21
$ 21 21 21 21 21 21 21 21 21 21 21 21 21 21 21 21 21 21 21 21 21 21

letting M_FunctionND be
        [[0, 0, 0, 0, 0, 0, 0, 0, 0, 0, 0, 0, 0, 0, 0, 0, 0, 0, 0, 0, 0, 0; int(0..21)],
         [0, 1, 0, 0, 0, 0, 0, 0, 0, 0, 0, 1, 1, 1, 1, 1, 1, 1, 1, 1, 0, 1; int(0..21)],
         [0, 0, 2, 0, 0, 0, 0, 0, 0, 0, 0, 2, 0, 0, 0, 0, 0, 0, 0, 0, 2, 2; int(0..21)],
         [0, 0, 0, 3, 0, 0, 0, 0, 0, 0, 0, 0, 3, 0, 0, 0, 0, 0, 0, 0, 3, 3; int(0..21)],
         [0, 0, 0, 0, 4, 0, 0, 0, 0, 0, 0, 0, 0, 4, 0, 0, 0, 0, 0, 0, 4, 4; int(0..21)],
         [0, 0, 0, 0, 0, 5, 0, 0, 0, 0, 0, 0, 0, 0, 5, 0, 0, 0, 0, 0, 5, 5; int(0..21)],
         [0, 0, 0, 0, 0, 0, 6, 0, 0, 0, 0, 0, 0, 0, 0, 6, 0, 0, 0, 0, 6, 6; int(0..21)],
         [0, 0, 0, 0, 0, 0, 0, 7, 0, 0, 0, 0, 0, 0, 0, 0, 7, 0, 0, 0, 7, 7; int(0..21)],
         [0, 0, 0, 0, 0, 0, 0, 0, 8, 0, 0, 0, 0, 0, 0, 0, 0, 8, 0, 0, 8, 8; int(0..21)],
         [0, 0, 0, 0, 0, 0, 0, 0, 0, 9, 0, 0, 0, 0, 0, 0, 0, 0, 9, 0, 9, 9; int(0..21)],
         [0, 0, 0, 0, 0, 0, 0, 0, 0, 0, 10, 0, 0, 0, 0, 0, 0, 0, 0, 10, 10, 10; int(0..21)],
         [0, 1, 2, 0, 0, 0, 0, 0, 0, 0, 0, 11, 1, 1, 1, 1, 1, 1, 1, 1, 2, 11; int(0..21)],
         [0, 1, 0, 3, 0, 0, 0, 0, 0, 0, 0, 1, 12, 1, 1, 1, 1, 1, 1, 1, 3, 12; int(0..21)],
         [0, 1, 0, 0, 4, 0, 0, 0, 0, 0, 0, 1, 1, 13, 1, 1, 1, 1, 1, 1, 4, 13; int(0..21)],
         [0, 1, 0, 0, 0, 5, 0, 0, 0, 0, 0, 1, 1, 1, 14, 1, 1, 1, 1, 1, 5, 14; int(0..21)],
         [0, 1, 0, 0, 0, 0, 6, 0, 0, 0, 0, 1, 1, 1, 1, 15, 1, 1, 1, 1, 6, 15; int(0..21)],
         [0, 1, 0, 0, 0, 0, 0, 7, 0, 0, 0, 1, 1, 1, 1, 1, 16, 1, 1, 1, 7, 16; int(0..21)],
         [0, 1, 0, 0, 0, 0, 0, 0, 8, 0, 0, 1, 1, 1, 1, 1, 1, 17, 1, 1, 8, 17; int(0..21)],
         [0, 1, 0, 0, 0, 0, 0, 0, 0, 9, 0, 1, 1, 1, 1, 1, 1, 1, 18, 1, 9, 18; int(0..21)],
         [0, 1, 0, 0, 0, 0, 0, 0, 0, 0, 10, 1, 1, 1, 1, 1, 1, 1, 1, 19, 10, 19; int(0..21)],
         [0, 0, 2, 3, 4, 5, 6, 7, 8, 9, 10, 2, 3, 4, 5, 6, 7, 8, 9, 10, 20, 20; int(0..21)],
         [0, 1, 2, 3, 4, 5, 6, 7, 8, 9, 10, 11, 12, 13, 14, 15, 16, 17, 18, 19, 20, 21; int(0..21)];
             int(0..21)]
$ Visualisation for M_FunctionND
$  0  0  0  0  0  0  0  0  0  0  0  0  0  0  0  0  0  0  0  0  0  0
$  0  1  0  0  0  0  0  0  0  0  0  1  1  1  1  1  1  1  1  1  0  1
$  0  0  2  0  0  0  0  0  0  0  0  2  0  0  0  0  0  0  0  0  2  2
$  0  0  0  3  0  0  0  0  0  0  0  0  3  0  0  0  0  0  0  0  3  3
$  0  0  0  0  4  0  0  0  0  0  0  0  0  4  0  0  0  0  0  0  4  4
$  0  0  0  0  0  5  0  0  0  0  0  0  0  0  5  0  0  0  0  0  5  5
$  0  0  0  0  0  0  6  0  0  0  0  0  0  0  0  6  0  0  0  0  6  6
$  0  0  0  0  0  0  0  7  0  0  0  0  0  0  0  0  7  0  0  0  7  7
$  0  0  0  0  0  0  0  0  8  0  0  0  0  0  0  0  0  8  0  0  8  8
$  0  0  0  0  0  0  0  0  0  9  0  0  0  0  0  0  0  0  9  0  9  9
$  0  0  0  0  0  0  0  0  0  0 10  0  0  0  0  0  0  0  0 10 10 10
$  0  1  2  0  0  0  0  0  0  0  0 11  1  1  1  1  1  1  1  1  2 11
$  0  1  0  3  0  0  0  0  0  0  0  1 12  1  1  1  1  1  1  1  3 12
$  0  1  0  0  4  0  0  0  0  0  0  1  1 13  1  1  1  1  1  1  4 13
$  0  1  0  0  0  5  0  0  0  0  0  1  1  1 14  1  1  1  1  1  5 14
$  0  1  0  0  0  0  6  0  0  0  0  1  1  1  1 15  1  1  1  1  6 15
$  0  1  0  0  0  0  0  7  0  0  0  1  1  1  1  1 16  1  1  1  7 16
$  0  1  0  0  0  0  0  0  8  0  0  1  1  1  1  1  1 17  1  1  8 17
$  0  1  0  0  0  0  0  0  0  9  0  1  1  1  1  1  1  1 18  1  9 18
$  0  1  0  0  0  0  0  0  0  0 10  1  1  1  1  1  1  1  1 19 10 19
$  0  0  2  3  4  5  6  7  8  9 10  2  3  4  5  6  7  8  9 10 20 20
$  0  1  2  3  4  5  6  7  8  9 10 11 12 13 14 15 16 17 18 19 20 21

letting R_Function1D be [0, 1, 1, 1, 1, 1, 1, 1, 1, 1, 1, 2, 2, 2, 2, 2, 2, 2, 2, 2, 2, 3; int(0..21)]
